(set-logic ALL)
(declare-fun var0 () String)
(assert (str.in_re var0 (re.++ (re.+ (re.union (str.to_re "000") (str.to_re "111"))) (re.++ (re.* (re.+ (str.to_re "22"))) (re.++ (re.* (re.union (str.to_re "333") (str.to_re "44"))) (re.++ (re.* (re.+ (str.to_re "5"))) (re.++ (re.+ (re.* (str.to_re "66"))) (re.++ (re.+ (re.* (str.to_re "777"))) (re.++ (re.union (re.+ (str.to_re "88")) (re.+ (str.to_re "99"))) (re.++ (re.union (re.* (str.to_re "aaa")) (re.* (str.to_re "bb"))) (re.++ (re.+ (re.* (str.to_re "c"))) (re.++ (re.union (re.* (str.to_re "ddd")) (re.* (str.to_re "ee"))) (re.++ (re.+ (re.* (str.to_re "ff"))) (re.++ (re.* (re.+ (str.to_re "ggg"))) (re.++ (re.union (re.+ (str.to_re "hh")) (re.+ (str.to_re "iii"))) (re.++ (re.union (re.+ (str.to_re "jjj")) (re.+ (str.to_re "kk"))) (re.++ (re.* (re.union (str.to_re "lll") (str.to_re "mmm"))) (re.++ (re.* (re.union (str.to_re "n") (str.to_re "oo"))) (re.++ (re.union (re.* (str.to_re "p")) (re.* (str.to_re "q"))) (re.++ (re.* (re.union (str.to_re "r") (str.to_re "s"))) (re.++ (re.* (re.+ (str.to_re "tt"))) (re.++ (re.+ (re.* (str.to_re "u"))) (re.++ (re.union (re.+ (str.to_re "vvv")) (re.+ (str.to_re "w"))) (re.++ (re.union (re.+ (str.to_re "xx")) (re.+ (str.to_re "y"))) (re.++ (re.union (re.union (str.to_re "zzz") (str.to_re "A")) (re.union (str.to_re "B") (str.to_re "C"))) (re.++ (re.* (re.* (str.to_re "D"))) (re.++ (re.union (re.+ (str.to_re "EEE")) (re.+ (str.to_re "F"))) (re.++ (re.union (re.* (str.to_re "G")) (re.* (str.to_re "HH"))) (re.++ (re.union (re.+ (str.to_re "III")) (re.+ (str.to_re "JJJ"))) (re.++ (re.* (re.+ (str.to_re "KK"))) (re.++ (re.union (re.+ (str.to_re "LL")) (re.+ (str.to_re "MMM"))) (re.++ (re.+ (re.+ (str.to_re "NNN"))) (re.++ (re.* (re.+ (str.to_re "OOO"))) (re.++ (re.+ (re.+ (str.to_re "P"))) (re.++ (re.+ (re.union (str.to_re "QQ") (str.to_re "RR"))) (re.++ (re.* (re.* (str.to_re "S"))) (re.++ (re.* (re.* (str.to_re "T"))) (re.++ (re.union (re.+ (str.to_re "UUU")) (re.+ (str.to_re "V"))) (re.++ (re.union (re.* (str.to_re "W")) (re.* (str.to_re "XXX"))) (re.++ (re.+ (re.union (str.to_re "YY") (str.to_re "Z"))) (re.++ (re.union (re.+ (str.to_re "!!")) (re.+ (str.to_re """"""""))) (re.++ (re.+ (re.union (str.to_re "##") (str.to_re "$$"))) (re.++ (re.* (re.union (str.to_re "%") (str.to_re "&"))) (re.++ (re.+ (re.union (str.to_re "'''") (str.to_re "(("))) (re.* (re.+ (str.to_re "))")))))))))))))))))))))))))))))))))))))))))))))))
(check-sat)